62 77 56 65 29 87 75 45 82 7 84 0 32 6 79 24 50 44 12 10 3 94 48 64 53 71 57 4 21 49 19 59 93 73 34 88 58 63 35 27 85 70 41 31 97 5 51 74 54 98 96 18 23 80 81 99 16 8 37 67 20 36 13 14 83 39 15 91 95 86 30 78 55 1 47 42 28 11 46 60 43 38 92 17 22 69 68 89 25 2 66 40 90 72 52 76 26 9 61 33 

